min: 44 x1_1 + 39 x1_2 + 20 x1_3 + 65 x1_4 + 51 x1_5 + 19 x1_6 + 94 x2_1 + 24 x2_2 + 53 x2_3 + 5 x2_4 + 60 x2_5 + 34 x2_6 + 93 x3_1 + 99 x3_2 + 98 x3_3 + 93 x3_4 + 73 x3_5 + 90 x3_6 + 85 x4_1 + 55 x4_2 + 73 x4_3 + 40 x4_4 + 32 x4_5 + 92 x4_6 + 74 x5_1 + 36 x5_2 + 17 x5_3 + 7 x5_4 + 64 x5_5 + 12 x5_6 + 15 x6_1 + 8 x6_2 + 2 x6_3 + 56 x6_4 + 94 x6_5 + 7 x6_6;

st
x1_1 + x1_2 + x1_3 + x1_4 + x1_5 + x1_6 = 3103;
x2_1 + x2_2 + x2_3 + x2_4 + x2_5 + x2_6 = 431;
x3_1 + x3_2 + x3_3 + x3_4 + x3_5 + x3_6 = 2317;
x4_1 + x4_2 + x4_3 + x4_4 + x4_5 + x4_6 = 2171;
x5_1 + x5_2 + x5_3 + x5_4 + x5_5 + x5_6 = 986;
x6_1 + x6_2 + x6_3 + x6_4 + x6_5 + x6_6 = 4801;

x1_1 + x2_1 + x3_1 + x4_1 + x5_1 + x6_1 >= 2613;
x1_2 + x2_2 + x3_2 + x4_2 + x5_2 + x6_2 >= 2547;
x1_3 + x2_3 + x3_3 + x4_3 + x5_3 + x6_3 >= 1462;
x1_4 + x2_4 + x3_4 + x4_4 + x5_4 + x6_4 >= 4937;
x1_5 + x2_5 + x3_5 + x4_5 + x5_5 + x6_5 >= 4376;
x1_6 + x2_6 + x3_6 + x4_6 + x5_6 + x6_6 >= 1611;

x1_1 >= 0;
x1_2 >= 0;
x1_3 >= 0;
x1_4 >= 0;
x1_5 >= 0;
x1_6 >= 0;
x2_1 >= 0;
x2_2 >= 0;
x2_3 >= 0;
x2_4 >= 0;
x2_5 >= 0;
x2_6 >= 0;
x3_1 >= 0;
x3_2 >= 0;
x3_3 >= 0;
x3_4 >= 0;
x3_5 >= 0;
x3_6 >= 0;
x4_1 >= 0;
x4_2 >= 0;
x4_3 >= 0;
x4_4 >= 0;
x4_5 >= 0;
x4_6 >= 0;
x5_1 >= 0;
x5_2 >= 0;
x5_3 >= 0;
x5_4 >= 0;
x5_5 >= 0;
x5_6 >= 0;
x6_1 >= 0;
x6_2 >= 0;
x6_3 >= 0;
x6_4 >= 0;
x6_5 >= 0;
x6_6 >= 0;